(set-option :print-success false)
(set-logic QF_UF)
(declare-sort x66 0)
(declare-sort x177 0)
(declare-fun x76 (x177 x177) x177)
(declare-fun x67 () x177)
(declare-fun x162 () x177)
(declare-fun x4 () x177)
(declare-fun x3 (x177 x177) x177)
(declare-fun x247 () x177)
(declare-fun x77 () x177)
(declare-fun x18 () x177)
(assert (let ((x149 (x76 x4 x67)) (x248 (x76 x4 x77)) (x236 (x76 x162 x4)) (x240 (x76 x162 x77)) (x235 (x76 x247 x247)) (x44 (x76 x247 x18)) (x32 (x76 x18 x247)) (x227 (x76 x77 x247)) (x161 (x76 x247 x162)) (x145 (x76 x247 x77)) (x195 (x76 x77 x4)) (x83 (x76 x162 x18)) (x22 (x76 x67 x67)) (x197 (x76 x247 x4)) (x137 (x76 x18 x4)) (x169 (x76 x77 x67)) (x37 (x76 x77 x162)) (x27 (x76 x4 x162)) (x154 (x76 x77 x77)) (x114 (x76 x247 x67)) (x210 (x76 x4 x247)) (x262 (x76 x162 x162)) (x57 (x76 x67 x162)) (x59 (x76 x162 x247)) (x75 (x76 x4 x4)) (x229 (x76 x67 x4)) (x232 (x76 x77 x18)) (x225 (x76 x67 x247)) (x122 (x76 x4 x18)) (x90 (x76 x18 x67)) (x98 (x76 x18 x77)) (x159 (x76 x18 x18)) (x189 (x76 x162 x67)) (x158 (x76 x67 x18)) (x253 (x76 x67 x77)) (x93 (x76 x18 x162))) (or (and (= x4 (x76 x75 x75)) (and (and (and (and (= x67 (x76 x229 x149)) (= x247 (x76 x197 x210))) (= x77 (x76 x195 x248))) (= (x76 x236 x27) x162)) (= x18 (x76 x137 x122)))) (or (or (or (and (and (and (= (x76 x240 x37) x162) (and (= (x76 x154 x154) x77) (and (= x247 (x76 x145 x227)) (= (x76 x253 x169) x67)))) (= x18 (x76 x98 x232))) (= (x76 x248 x195) x4)) (or (and (and (and (and (= (x76 x169 x253) x77) (and (= x67 (x76 x22 x22)) (= x247 (x76 x114 x225)))) (= x162 (x76 x189 x57))) (= (x76 x90 x158) x18)) (= x4 (x76 x149 x229))) (and (and (= x18 (x76 x32 x44)) (and (= (x76 x59 x161) x162) (and (and (= (x76 x235 x235) x247) (= (x76 x225 x114) x67)) (= x77 (x76 x227 x145))))) (= x4 (x76 x210 x197))))) (and (= (x76 x27 x236) x4) (and (and (= (x76 x262 x262) x162) (and (and (= x67 (x76 x57 x189)) (= (x76 x161 x59) x247)) (= (x76 x37 x240) x77))) (= x18 (x76 x93 x83))))) (and (and (= (x76 x159 x159) x18) (and (and (and (= x67 (x76 x158 x90)) (= x247 (x76 x44 x32))) (= (x76 x232 x98) x77)) (= (x76 x83 x93) x162))) (= (x76 x122 x137) x4))))))
(assert (let ((x137 (x76 x4 x162)) (x154 (x76 x247 x77)) (x158 (x76 x77 x18)) (x262 (x76 x77 x162)) (x57 (x76 x247 x162)) (x90 (x76 x77 x4)) (x161 (x76 x247 x4)) (x37 (x76 x77 x247)) (x248 (x76 x4 x67)) (x253 (x76 x67 x18)) (x225 (x76 x67 x247)) (x98 (x76 x162 x162)) (x75 (x76 x4 x4)) (x32 (x76 x162 x247)) (x229 (x76 x18 x247)) (x235 (x76 x67 x162)) (x145 (x76 x247 x67)) (x210 (x76 x18 x18)) (x189 (x76 x247 x18)) (x27 (x76 x4 x77)) (x114 (x76 x67 x77)) (x83 (x76 x162 x18)) (x159 (x76 x18 x67)) (x122 (x76 x4 x18)) (x22 (x76 x67 x67)) (x195 (x76 x18 x4)) (x44 (x76 x162 x67)) (x197 (x76 x18 x162)) (x149 (x76 x18 x77)) (x240 (x76 x77 x77)) (x93 (x76 x162 x4)) (x227 (x76 x247 x247)) (x169 (x76 x67 x4)) (x59 (x76 x77 x67)) (x236 (x76 x4 x247)) (x232 (x76 x162 x77))) (and (and (and (or (= x122 x4) (or (= x122 x18) (or (= x162 x122) (or (= x122 x77) (or (= x247 x122) (= x67 x122)))))) (and (and (and (or (= x236 x4) (or (= x18 x236) (or (or (= x77 x236) (or (= x247 x236) (= x236 x67))) (= x162 x236)))) (or (or (or (or (or (= x247 x248) (= x248 x67)) (= x77 x248)) (= x162 x248)) (= x18 x248)) (= x248 x4))) (or (= x27 x4) (or (= x18 x27) (or (or (or (= x27 x247) (= x67 x27)) (= x77 x27)) (= x162 x27))))) (or (or (or (= x162 x137) (or (= x137 x77) (or (= x67 x137) (= x137 x247)))) (= x18 x137)) (= x4 x137)))) (or (or (or (= x162 x75) (or (or (= x75 x247) (= x67 x75)) (= x75 x77))) (= x75 x18)) (= x75 x4))) (and (and (and (or (or (or (or (or (= x210 x67) (= x210 x247)) (= x77 x210)) (= x210 x162)) (= x210 x18)) (= x4 x210)) (and (or (or (or (or (or (= x67 x197) (= x197 x247)) (= x77 x197)) (= x162 x197)) (= x197 x18)) (= x4 x197)) (and (and (or (or (or (or (or (= x229 x67) (= x247 x229)) (= x229 x77)) (= x229 x162)) (= x18 x229)) (= x4 x229)) (or (or (or (= x159 x162) (or (= x77 x159) (or (= x67 x159) (= x247 x159)))) (= x159 x18)) (= x4 x159))) (or (= x4 x149) (or (or (= x162 x149) (or (= x77 x149) (or (= x149 x67) (= x149 x247)))) (= x149 x18)))))) (or (= x4 x195) (or (or (or (= x195 x77) (or (= x195 x247) (= x195 x67))) (= x195 x162)) (= x195 x18)))) (and (and (and (and (and (and (and (or (or (or (= x162 x37) (or (or (= x37 x247) (= x37 x67)) (= x77 x37))) (= x37 x18)) (= x4 x37)) (or (= x4 x59) (or (= x18 x59) (or (or (or (= x247 x59) (= x67 x59)) (= x59 x77)) (= x162 x59))))) (or (or (or (or (= x77 x240) (or (= x240 x67) (= x240 x247))) (= x240 x162)) (= x240 x18)) (= x4 x240))) (or (or (or (or (= x77 x262) (or (= x262 x247) (= x67 x262))) (= x262 x162)) (= x18 x262)) (= x262 x4))) (or (= x158 x4) (or (= x158 x18) (or (or (= x77 x158) (or (= x158 x247) (= x158 x67))) (= x162 x158))))) (or (= x4 x90) (or (= x18 x90) (or (= x162 x90) (or (or (= x247 x90) (= x67 x90)) (= x90 x77)))))) (and (and (and (and (or (= x57 x4) (or (or (= x57 x162) (or (or (= x67 x57) (= x247 x57)) (= x77 x57))) (= x18 x57))) (and (and (or (= x227 x4) (or (= x18 x227) (or (or (= x77 x227) (or (= x67 x227) (= x247 x227))) (= x227 x162)))) (or (or (= x145 x18) (or (or (or (= x247 x145) (= x67 x145)) (= x145 x77)) (= x145 x162))) (= x4 x145))) (or (= x154 x4) (or (or (= x162 x154) (or (or (= x247 x154) (= x154 x67)) (= x154 x77))) (= x154 x18))))) (or (or (= x18 x189) (or (or (= x77 x189) (or (= x67 x189) (= x247 x189))) (= x162 x189))) (= x4 x189))) (or (or (or (= x161 x162) (or (= x161 x77) (or (= x67 x161) (= x247 x161)))) (= x161 x18)) (= x161 x4))) (and (or (= x4 x169) (or (= x18 x169) (or (or (= x77 x169) (or (= x247 x169) (= x67 x169))) (= x162 x169)))) (and (and (or (or (or (or (= x235 x77) (or (= x235 x67) (= x247 x235))) (= x235 x162)) (= x18 x235)) (= x4 x235)) (and (and (or (= x225 x4) (or (or (or (= x225 x77) (or (= x247 x225) (= x225 x67))) (= x225 x162)) (= x225 x18))) (or (= x22 x4) (or (= x22 x18) (or (= x22 x162) (or (= x77 x22) (or (= x22 x247) (= x22 x67))))))) (or (or (= x18 x114) (or (= x162 x114) (or (or (= x114 x67) (= x114 x247)) (= x114 x77)))) (= x4 x114)))) (or (= x4 x253) (or (= x18 x253) (or (= x162 x253) (or (= x77 x253) (or (= x253 x67) (= x253 x247)))))))))) (and (and (and (or (or (or (= x98 x162) (or (or (= x247 x98) (= x67 x98)) (= x98 x77))) (= x18 x98)) (= x98 x4)) (and (or (or (= x18 x232) (or (or (or (= x232 x247) (= x67 x232)) (= x77 x232)) (= x162 x232))) (= x232 x4)) (and (or (= x44 x4) (or (= x18 x44) (or (= x44 x162) (or (= x77 x44) (or (= x247 x44) (= x44 x67)))))) (or (or (or (= x32 x162) (or (or (= x32 x247) (= x32 x67)) (= x77 x32))) (= x32 x18)) (= x4 x32))))) (or (= x83 x4) (or (or (or (= x77 x83) (or (= x67 x83) (= x247 x83))) (= x83 x162)) (= x18 x83)))) (or (or (= x18 x93) (or (or (or (= x93 x67) (= x93 x247)) (= x77 x93)) (= x93 x162))) (= x4 x93))))))))
(assert (let ((x253 (x76 x18 x18))) (let ((x114 (x76 x253 x18))) (let ((x22 (x76 x18 x114))) (let ((x225 (x76 x22 x22)) (x235 (x76 x114 x114))) (not (and (and (and (and (and (and (and (and (= x18 (x76 x114 x253)) (and (= x235 x235) (and (and (= x225 (x76 x114 x18)) (and (and (and (= x225 (x76 x225 x253)) (and (and (= (x76 x225 x225) x22) (and (= x18 (x76 x225 x18)) (and (= x253 (x76 x225 x235)) (and (= (x76 x225 x22) x235) (and (= x114 (x76 x18 x253)) (and (= x22 x22) (and (and (and (= x235 (x76 x18 x235)) (and (and (= (x76 x235 x253) x22) (and (and (= (x76 x235 x225) x18) (and (= (x76 x235 x18) x235) (and (and (and (and (= x18 (x76 x22 x114)) (and (= (x76 x22 x225) x235) (and (and (= x225 x225) (= (x76 x22 x235) x114)) (= x22 (x76 x22 x18))))) (= (x76 x22 x253) x253)) (= x114 (x76 x235 x22))) (= x225 (x76 x235 x235))))) (= (x76 x235 x114) x253))) (= x18 (x76 x18 x22)))) (= x253 x253)) (= (x76 x18 x225) x225)))))))) (= x114 (x76 x225 x114)))) (= (x76 x114 x22) x253)) (= (x76 x114 x235) x22))) (= (x76 x114 x225) x114)))) (= (x76 x253 x22) x22)) (= (x76 x253 x235) x18)) (= x114 x114)) (= (x76 x253 x225) x253)) (= x225 (x76 x253 x114))) (= (x76 x253 x253) x235)) (and (and (not (= x253 x225)) (and (not (= x253 x18)) (and (not (= x235 x253)) (and (not (= x22 x253)) (and (and (not (= x114 x225)) (and (and (and (not (= x22 x114)) (and (not (= x225 x253)) (and (and (and (and (and (and (not (= x114 x18)) (and (not (= x225 x18)) (and (not (= x18 x235)) (and (and (and (not (= x235 x114)) (and (and (and (and (not (= x22 x253)) (and (not (= x22 x114)) (and (not (= x225 x22)) (and (not (= x22 x235)) (not (= x18 x22)))))) (not (= x235 x22))) (not (= x18 x235))) (not (= x225 x235)))) (not (= x253 x235))) (not (= x22 x18)))))) (not (= x18 x253))) (not (= x225 x22))) (not (= x225 x235))) (not (= x225 x18))) (not (= x225 x114))))) (not (= x114 x235))) (not (= x18 x114)))) (not (= x253 x114))))))) (not (= x253 x114))))))))))
(assert (let ((x253 (x76 x77 x77))) (let ((x114 (x76 x253 x77))) (let ((x22 (x76 x77 x114))) (let ((x235 (x76 x114 x114)) (x225 (x76 x22 x22))) (not (and (and (not (= x253 x114)) (and (and (not (= x77 x253)) (and (not (= x253 x235)) (and (and (not (= x253 x114)) (and (not (= x225 x114)) (and (not (= x77 x114)) (and (not (= x235 x114)) (and (not (= x114 x22)) (and (and (and (not (= x77 x225)) (and (not (= x225 x235)) (and (not (= x22 x225)) (and (not (= x253 x77)) (and (not (= x77 x114)) (and (and (not (= x235 x77)) (and (and (and (and (and (not (= x235 x77)) (and (and (not (= x22 x253)) (and (and (not (= x225 x22)) (and (not (= x22 x235)) (not (= x77 x22)))) (not (= x114 x22)))) (not (= x235 x22)))) (not (= x235 x225))) (not (= x235 x114))) (not (= x253 x235))) (not (= x77 x22)))) (not (= x77 x225)))))))) (not (= x114 x225))) (not (= x253 x225)))))))) (not (= x22 x253))))) (not (= x225 x253)))) (and (= x235 (x76 x253 x253)) (and (and (and (and (= x77 (x76 x253 x235)) (and (= (x76 x253 x22) x22) (and (and (and (and (and (and (= (x76 x114 x22) x253) (and (= x225 (x76 x225 x253)) (and (and (and (and (= (x76 x225 x235) x253) (and (= (x76 x225 x22) x235) (and (= (x76 x77 x253) x114) (and (= x22 x22) (and (and (and (and (= (x76 x77 x22) x77) (and (= x22 (x76 x235 x253)) (and (and (and (= (x76 x235 x77) x235) (and (and (and (= (x76 x22 x253) x253) (and (and (= x235 (x76 x22 x225)) (and (and (= x225 x225) (= (x76 x22 x235) x114)) (= x22 (x76 x22 x77)))) (= (x76 x22 x114) x77))) (= x114 (x76 x235 x22))) (= (x76 x235 x235) x225))) (= (x76 x235 x225) x77)) (= x253 (x76 x235 x114))))) (= (x76 x77 x235) x235)) (= x253 x253)) (= x225 (x76 x77 x225))))))) (= x77 (x76 x225 x77))) (= x22 (x76 x225 x225))) (= (x76 x225 x114) x114)))) (= (x76 x114 x235) x22)) (= (x76 x114 x77) x225)) (= (x76 x114 x225) x114)) (= x235 x235)) (= (x76 x114 x253) x77)))) (= x114 x114)) (= x253 (x76 x253 x225))) (= (x76 x253 x114) x225))))))))))
(assert (or (or (and (not (= (x76 x18 (x76 x18 x4)) x4)) (and (not (= x18 (x76 x18 (x76 x18 x18)))) (and (not (= (x76 x18 (x76 x18 x162)) x162)) (and (and (not (= x67 (x76 x18 (x76 x18 x67)))) (not (= x247 (x76 x18 (x76 x18 x247))))) (not (= (x76 x18 (x76 x18 x77)) x77)))))) (or (and (and (not (= x18 (x76 x162 (x76 x162 x18)))) (and (not (= (x76 x162 (x76 x162 x162)) x162)) (and (and (not (= (x76 x162 (x76 x162 x247)) x247)) (not (= x67 (x76 x162 (x76 x162 x67))))) (not (= x77 (x76 x162 (x76 x162 x77))))))) (not (= (x76 x162 (x76 x162 x4)) x4))) (or (or (and (and (not (= x18 (x76 x67 (x76 x67 x18)))) (and (not (= (x76 x67 (x76 x67 x162)) x162)) (and (and (not (= (x76 x67 (x76 x67 x247)) x247)) (not (= x67 (x76 x67 (x76 x67 x67))))) (not (= x77 (x76 x67 (x76 x67 x77))))))) (not (= (x76 x67 (x76 x67 x4)) x4))) (and (and (and (not (= (x76 x247 (x76 x247 x162)) x162)) (and (and (not (= x247 (x76 x247 (x76 x247 x247)))) (not (= x67 (x76 x247 (x76 x247 x67))))) (not (= x77 (x76 x247 (x76 x247 x77)))))) (not (= (x76 x247 (x76 x247 x18)) x18))) (not (= (x76 x247 (x76 x247 x4)) x4)))) (and (and (not (= x18 (x76 x77 (x76 x77 x18)))) (and (and (and (not (= (x76 x77 (x76 x77 x247)) x247)) (not (= (x76 x77 (x76 x77 x67)) x67))) (not (= x77 (x76 x77 (x76 x77 x77))))) (not (= x162 (x76 x77 (x76 x77 x162)))))) (not (= x4 (x76 x77 (x76 x77 x4)))))))) (and (not (= x4 (x76 x4 (x76 x4 x4)))) (and (and (not (= (x76 x4 (x76 x4 x162)) x162)) (and (not (= x77 (x76 x4 (x76 x4 x77)))) (and (not (= (x76 x4 (x76 x4 x67)) x67)) (not (= (x76 x4 (x76 x4 x247)) x247))))) (not (= (x76 x4 (x76 x4 x18)) x18))))))
(assert (let ((x169 (x76 x67 x77)) (x27 (x76 x162 x4)) (x145 (x76 x77 x247)) (x154 (= (x76 x77 x77) x77)) (x149 (x76 x67 x4)) (x32 (x76 x247 x18)) (x262 (= x162 (x76 x162 x162))) (x83 (x76 x18 x162)) (x189 (x76 x67 x162)) (x44 (x76 x18 x247)) (x122 (x76 x18 x4)) (x235 (= x247 (x76 x247 x247))) (x59 (x76 x247 x162)) (x161 (x76 x162 x247)) (x227 (x76 x247 x77)) (x229 (x76 x4 x67)) (x195 (x76 x4 x77)) (x253 (x76 x77 x67)) (x225 (x76 x247 x67)) (x93 (x76 x162 x18)) (x114 (x76 x67 x247)) (x57 (x76 x162 x67)) (x210 (x76 x247 x4)) (x240 (x76 x77 x162)) (x22 (= x67 (x76 x67 x67))) (x232 (x76 x18 x77)) (x236 (x76 x4 x162)) (x197 (x76 x4 x247)) (x248 (x76 x77 x4)) (x158 (x76 x18 x67)) (x37 (x76 x162 x77)) (x159 (= x18 (x76 x18 x18))) (x90 (x76 x67 x18)) (x75 (= (x76 x4 x4) x4)) (x98 (x76 x77 x18)) (x137 (x76 x4 x18))) (or (or (or (or (and (= x27 x162) (= x162 x236)) (or (or (or (or (and (= x162 x59) (= x162 x161)) (and (= x162 x57) (= x189 x162))) (and (= x240 x162) (= x162 x37))) (and x262 x262)) (and (= x162 x83) (= x162 x93)))) (or (or (or (and (= x247 x197) (= x210 x247)) (or (or (and (= x161 x247) (= x59 x247)) (or (and (= x247 x227) (= x145 x247)) (or (and (= x247 x225) (= x247 x114)) (and x235 x235)))) (and (= x44 x247) (= x32 x247)))) (or (and (= x67 x149) (= x67 x229)) (or (or (and (= x67 x189) (= x57 x67)) (or (or (and x22 x22) (and (= x67 x114) (= x67 x225))) (and (= x169 x67) (= x253 x67)))) (and (= x67 x90) (= x158 x67))))) (or (and (= x77 x195) (= x248 x77)) (or (and (= x77 x232) (= x98 x77)) (or (or (and x154 x154) (or (and (= x227 x77) (= x77 x145)) (and (= x77 x253) (= x169 x77)))) (and (= x37 x77) (= x240 x77))))))) (or (or (or (or (or (and (= x158 x18) (= x90 x18)) (and (= x32 x18) (= x44 x18))) (and (= x232 x18) (= x18 x98))) (and (= x93 x18) (= x83 x18))) (and x159 x159)) (and (= x18 x137) (= x122 x18)))) (or (and x75 x75) (or (or (and (= x4 x27) (= x236 x4)) (or (or (and (= x229 x4) (= x149 x4)) (and (= x4 x210) (= x197 x4))) (and (= x4 x248) (= x4 x195)))) (and (= x122 x4) (= x4 x137)))))))
(assert (let ((x253 (x76 x247 x247))) (let ((x114 (x76 x253 x247))) (let ((x22 (x76 x247 x114))) (let ((x235 (x76 x114 x114)) (x225 (x76 x22 x22))) (not (and (and (and (= x225 (x76 x253 x114)) (and (and (and (and (and (= (x76 x114 x253) x247) (and (and (and (= x225 (x76 x114 x247)) (and (= x22 (x76 x114 x235)) (and (and (and (= (x76 x225 x114) x114) (and (and (= (x76 x225 x247) x247) (and (= (x76 x225 x235) x253) (and (= (x76 x225 x22) x235) (and (= x114 (x76 x247 x253)) (and (= x22 x22) (and (and (and (= x235 (x76 x247 x235)) (and (and (= (x76 x235 x253) x22) (and (and (and (and (= (x76 x235 x235) x225) (and (= x114 (x76 x235 x22)) (and (and (= x247 (x76 x22 x114)) (and (and (and (= x225 x225) (= x114 (x76 x22 x235))) (= (x76 x22 x247) x22)) (= (x76 x22 x225) x235))) (= x253 (x76 x22 x253))))) (= (x76 x235 x247) x235)) (= x247 (x76 x235 x225))) (= (x76 x235 x114) x253))) (= (x76 x247 x22) x247))) (= x253 x253)) (= (x76 x247 x225) x225))))))) (= (x76 x225 x225) x22))) (= x225 (x76 x225 x253))) (= (x76 x114 x22) x253)))) (= x114 (x76 x114 x225))) (= x235 x235))) (= (x76 x253 x22) x22)) (= (x76 x253 x235) x247)) (= x114 x114)) (= x253 (x76 x253 x225)))) (= (x76 x253 x253) x235)) (and (and (and (not (= x253 x247)) (and (and (not (= x253 x22)) (and (and (not (= x114 x225)) (and (and (not (= x235 x114)) (and (not (= x22 x114)) (and (and (and (not (= x247 x225)) (and (and (and (and (and (not (= x225 x247)) (and (and (not (= x22 x247)) (and (and (not (= x235 x114)) (and (and (and (not (= x22 x235)) (and (and (and (not (= x225 x22)) (and (not (= x22 x247)) (not (= x22 x235)))) (not (= x114 x22))) (not (= x253 x22)))) (not (= x235 x247))) (not (= x225 x235)))) (not (= x253 x235)))) (not (= x235 x247)))) (not (= x114 x247))) (not (= x247 x253))) (not (= x225 x22))) (not (= x235 x225)))) (not (= x225 x114))) (not (= x225 x253))))) (not (= x247 x114)))) (not (= x114 x253)))) (not (= x235 x253)))) (not (= x253 x225))) (not (= x253 x114))))))))))
(assert (let ((x253 (x76 x4 x4))) (let ((x114 (x76 x253 x4))) (let ((x22 (x76 x4 x114))) (let ((x235 (x76 x114 x114)) (x225 (x76 x22 x22))) (not (and (and (not (= x253 x114)) (and (not (= x225 x253)) (and (not (= x4 x253)) (and (not (= x235 x253)) (and (not (= x253 x22)) (and (not (= x114 x253)) (and (and (and (not (= x235 x114)) (and (not (= x22 x114)) (and (not (= x253 x225)) (and (and (not (= x4 x225)) (and (not (= x235 x225)) (and (not (= x225 x22)) (and (and (not (= x114 x4)) (and (and (and (not (= x22 x4)) (and (and (not (= x114 x235)) (and (and (and (not (= x22 x235)) (and (not (= x253 x22)) (and (and (and (not (= x22 x4)) (not (= x22 x235))) (not (= x22 x225))) (not (= x22 x114))))) (not (= x235 x4))) (not (= x235 x225)))) (not (= x235 x253)))) (not (= x235 x4))) (not (= x225 x4)))) (not (= x253 x4)))))) (not (= x225 x114)))))) (not (= x114 x4))) (not (= x114 x225))))))))) (and (and (= (x76 x253 x114) x225) (and (and (and (and (= (x76 x253 x22) x22) (and (and (= x235 x235) (and (= (x76 x114 x225) x114) (and (and (= x22 (x76 x114 x235)) (and (= x253 (x76 x114 x22)) (and (and (= (x76 x225 x114) x114) (and (= x22 (x76 x225 x225)) (and (= x4 (x76 x225 x4)) (and (= x253 (x76 x225 x235)) (and (and (and (and (= x225 (x76 x4 x225)) (and (= x253 x253) (and (and (and (and (= (x76 x235 x114) x253) (and (= (x76 x235 x225) x4) (and (and (= x225 (x76 x235 x235)) (and (= x114 (x76 x235 x22)) (and (and (and (and (= (x76 x22 x4) x22) (and (= x225 x225) (= (x76 x22 x235) x114))) (= x235 (x76 x22 x225))) (= x4 (x76 x22 x114))) (= (x76 x22 x253) x253)))) (= (x76 x235 x4) x235)))) (= (x76 x235 x253) x22)) (= (x76 x4 x22) x4)) (= x235 (x76 x4 x235))))) (= x22 x22)) (= (x76 x4 x253) x114)) (= (x76 x225 x22) x235)))))) (= (x76 x225 x253) x225)))) (= x225 (x76 x114 x4))))) (= x4 (x76 x114 x253)))) (= x4 (x76 x253 x235))) (= x114 x114)) (= x253 (x76 x253 x225)))) (= x235 (x76 x253 x253))))))))))
(assert (let ((x253 (x76 x162 x162))) (let ((x114 (x76 x253 x162))) (let ((x22 (x76 x162 x114))) (let ((x225 (x76 x22 x22)) (x235 (x76 x114 x114))) (not (and (and (= x235 (x76 x253 x253)) (and (= (x76 x253 x114) x225) (and (and (and (= (x76 x253 x235) x162) (and (and (= (x76 x114 x253) x162) (and (= x235 x235) (and (and (and (and (= x253 (x76 x114 x22)) (and (= x225 (x76 x225 x253)) (and (and (= x22 (x76 x225 x225)) (and (= x162 (x76 x225 x162)) (and (= x253 (x76 x225 x235)) (and (and (and (and (= x225 (x76 x162 x225)) (and (and (and (= x162 (x76 x162 x22)) (and (= x22 (x76 x235 x253)) (and (= (x76 x235 x114) x253) (and (= x162 (x76 x235 x225)) (and (and (and (= (x76 x235 x22) x114) (and (and (and (= x235 (x76 x22 x225)) (and (= x22 (x76 x22 x162)) (and (= x114 (x76 x22 x235)) (= x225 x225)))) (= x162 (x76 x22 x114))) (= x253 (x76 x22 x253)))) (= x225 (x76 x235 x235))) (= (x76 x235 x162) x235)))))) (= x235 (x76 x162 x235))) (= x253 x253))) (= x22 x22)) (= (x76 x162 x253) x114)) (= x235 (x76 x225 x22)))))) (= x114 (x76 x225 x114))))) (= x22 (x76 x114 x235))) (= (x76 x114 x162) x225)) (= (x76 x114 x225) x114)))) (= x22 (x76 x253 x22)))) (= x114 x114)) (= x253 (x76 x253 x225))))) (and (and (and (not (= x253 x162)) (and (not (= x253 x235)) (and (not (= x22 x253)) (and (not (= x114 x253)) (and (and (not (= x162 x114)) (and (not (= x235 x114)) (and (not (= x22 x114)) (and (not (= x225 x253)) (and (not (= x114 x225)) (and (not (= x225 x162)) (and (not (= x235 x225)) (and (and (not (= x162 x253)) (and (not (= x114 x162)) (and (and (not (= x235 x162)) (and (not (= x22 x162)) (and (and (and (and (and (not (= x22 x235)) (and (not (= x22 x253)) (and (and (and (not (= x22 x235)) (not (= x162 x22))) (not (= x225 x22))) (not (= x22 x114))))) (not (= x162 x235))) (not (= x225 x235))) (not (= x114 x235))) (not (= x235 x253))))) (not (= x162 x225))))) (not (= x225 x22)))))))))) (not (= x225 x114))))))) (not (= x253 x225))) (not (= x114 x253))))))))))
(assert (let ((x240 (x76 x77 x77)) (x90 (x76 x4 x77)) (x137 (x76 x162 x4)) (x161 (x76 x4 x247)) (x248 (x76 x67 x4)) (x27 (x76 x77 x4)) (x169 (x76 x4 x67)) (x93 (x76 x4 x162)) (x253 (x76 x18 x67)) (x32 (x76 x247 x162)) (x262 (x76 x162 x77)) (x122 (x76 x18 x4)) (x158 (x76 x18 x77)) (x149 (x76 x77 x18)) (x197 (x76 x162 x18)) (x236 (x76 x247 x4)) (x57 (x76 x162 x247)) (x75 (x76 x4 x4)) (x22 (x76 x67 x67)) (x44 (x76 x67 x162)) (x98 (x76 x162 x162)) (x159 (x76 x67 x18)) (x114 (x76 x77 x67)) (x232 (x76 x77 x162)) (x235 (x76 x162 x67)) (x227 (x76 x247 x247)) (x59 (x76 x67 x77)) (x229 (x76 x247 x18)) (x210 (x76 x18 x18)) (x189 (x76 x18 x247)) (x83 (x76 x18 x162)) (x225 (x76 x247 x67)) (x154 (x76 x77 x247)) (x37 (x76 x247 x77)) (x145 (x76 x67 x247)) (x195 (x76 x4 x18))) (or (or (or (and (not (= (x76 x93 x4) x93)) (and (not (= x83 (x76 x83 x18))) (and (and (and (not (= x32 (x76 x32 x247))) (not (= x44 (x76 x44 x67)))) (not (= (x76 x232 x77) x232))) (not (= (x76 x98 x162) x98))))) (or (or (and (not (= (x76 x169 x4) x169)) (and (and (not (= (x76 x235 x162) x235)) (and (and (not (= (x76 x22 x67) x22)) (not (= x225 (x76 x225 x247)))) (not (= x114 (x76 x114 x77))))) (not (= x253 (x76 x253 x18))))) (and (not (= x161 (x76 x161 x4))) (and (not (= (x76 x189 x18) x189)) (and (and (not (= x154 (x76 x154 x77))) (and (not (= x145 (x76 x145 x67))) (not (= x227 (x76 x227 x247))))) (not (= (x76 x57 x162) x57)))))) (and (not (= x90 (x76 x90 x4))) (and (not (= (x76 x158 x18) x158)) (and (not (= (x76 x262 x162) x262)) (and (and (not (= x37 (x76 x37 x247))) (not (= (x76 x59 x67) x59))) (not (= x240 (x76 x240 x77))))))))) (and (and (and (not (= (x76 x197 x162) x197)) (and (not (= x149 (x76 x149 x77))) (and (not (= x159 (x76 x159 x67))) (not (= x229 (x76 x229 x247)))))) (not (= x210 (x76 x210 x18)))) (not (= x195 (x76 x195 x4))))) (and (and (and (not (= x137 (x76 x137 x162))) (and (not (= x27 (x76 x27 x77))) (and (not (= (x76 x236 x247) x236)) (not (= x248 (x76 x248 x67)))))) (not (= x122 (x76 x122 x18)))) (not (= (x76 x75 x4) x75))))))
(assert (let ((x27 (x76 x77 x4)) (x158 (x76 x18 x77)) (x195 (x76 x4 x18)) (x93 (x76 x4 x162)) (x37 (x76 x247 x77)) (x262 (x76 x162 x77)) (x236 (x76 x247 x4)) (x57 (x76 x162 x247)) (x169 (x76 x4 x67)) (x235 (x76 x162 x67)) (x197 (x76 x162 x18)) (x232 (x76 x77 x162)) (x189 (x76 x18 x247)) (x154 (x76 x77 x247)) (x59 (x76 x67 x77)) (x253 (x76 x18 x67)) (x149 (x76 x77 x18)) (x159 (x76 x67 x18)) (x114 (x76 x77 x67)) (x229 (x76 x247 x18)) (x90 (x76 x4 x77)) (x248 (x76 x67 x4)) (x225 (x76 x247 x67)) (x227 (x76 x247 x247)) (x161 (x76 x4 x247)) (x22 (x76 x67 x67)) (x122 (x76 x18 x4)) (x83 (x76 x18 x162)) (x32 (x76 x247 x162)) (x137 (x76 x162 x4)) (x240 (x76 x77 x77)) (x210 (x76 x18 x18)) (x145 (x76 x67 x247)) (x75 (x76 x4 x4)) (x44 (x76 x67 x162)) (x98 (x76 x162 x162))) (and (and (and (not (= x75 x195)) (and (not (= x75 x93)) (and (not (= x195 x93)) (and (and (not (= x90 x195)) (and (and (and (not (= x195 x161)) (and (and (and (and (not (= x169 x195)) (and (and (not (= x169 x90)) (not (= x161 x169))) (not (= x169 x93)))) (not (= x75 x169))) (not (= x161 x90))) (not (= x93 x161)))) (not (= x75 x161))) (not (= x90 x93)))) (not (= x75 x90)))))) (and (and (not (= x210 x122)) (and (and (and (and (not (= x210 x158)) (and (not (= x158 x83)) (and (not (= x189 x122)) (and (and (not (= x83 x189)) (and (not (= x189 x158)) (and (not (= x253 x122)) (and (and (and (not (= x189 x253)) (not (= x158 x253))) (not (= x83 x253))) (not (= x210 x253)))))) (not (= x189 x210)))))) (not (= x122 x158))) (not (= x83 x210))) (not (= x122 x83)))) (and (and (and (and (not (= x197 x98)) (and (and (and (and (and (and (not (= x98 x57)) (and (not (= x57 x262)) (and (and (and (not (= x235 x98)) (and (not (= x235 x262)) (not (= x57 x235)))) (not (= x197 x235))) (not (= x235 x137))))) (not (= x57 x197))) (not (= x57 x137))) (not (= x98 x262))) (not (= x197 x262))) (not (= x262 x137)))) (not (= x137 x98))) (not (= x137 x197))) (and (and (not (= x27 x149)) (and (and (and (and (not (= x240 x149)) (and (not (= x232 x240)) (and (and (not (= x149 x154)) (and (and (and (not (= x27 x114)) (and (not (= x149 x114)) (and (not (= x232 x114)) (and (not (= x240 x114)) (not (= x114 x154)))))) (not (= x154 x240))) (not (= x232 x154)))) (not (= x154 x27))))) (not (= x240 x27))) (not (= x232 x149))) (not (= x232 x27)))) (and (and (and (not (= x248 x44)) (and (and (not (= x248 x59)) (and (not (= x159 x59)) (and (and (not (= x145 x248)) (and (and (not (= x44 x145)) (and (and (and (and (not (= x22 x44)) (and (not (= x22 x59)) (not (= x22 x145)))) (not (= x159 x22))) (not (= x22 x248))) (not (= x59 x145)))) (not (= x145 x159)))) (not (= x59 x44))))) (not (= x159 x44)))) (not (= x159 x248))) (and (and (and (and (not (= x236 x37)) (and (and (and (and (and (not (= x227 x32)) (and (and (not (= x225 x236)) (and (not (= x225 x229)) (and (not (= x32 x225)) (and (not (= x225 x37)) (not (= x225 x227)))))) (not (= x37 x227)))) (not (= x229 x227))) (not (= x227 x236))) (not (= x37 x32))) (not (= x37 x229)))) (not (= x32 x229))) (not (= x236 x32))) (not (= x236 x229)))))))) (and (and (and (not (= x210 x195)) (and (not (= x197 x195)) (and (not (= x197 x210)) (and (not (= x149 x195)) (and (and (and (not (= x229 x195)) (and (not (= x229 x210)) (and (and (and (not (= x195 x159)) (and (and (and (not (= x159 x149)) (not (= x229 x159))) (not (= x159 x197))) (not (= x159 x210)))) (not (= x149 x229))) (not (= x197 x229))))) (not (= x149 x197))) (not (= x149 x210))))))) (and (and (and (not (= x90 x158)) (and (not (= x262 x90)) (and (and (and (and (and (not (= x90 x37)) (and (not (= x158 x37)) (and (not (= x37 x262)) (and (not (= x240 x37)) (and (and (and (and (not (= x59 x37)) (not (= x59 x240))) (not (= x59 x262))) (not (= x59 x158))) (not (= x59 x90))))))) (not (= x262 x240))) (not (= x240 x158))) (not (= x90 x240))) (not (= x262 x158))))) (and (and (not (= x169 x253)) (and (and (and (not (= x169 x114)) (and (and (and (and (and (and (and (and (not (= x253 x22)) (and (not (= x22 x235)) (and (not (= x22 x114)) (not (= x22 x225))))) (not (= x169 x22))) (not (= x114 x225))) (not (= x235 x225))) (not (= x253 x225))) (not (= x225 x169))) (not (= x235 x114))) (not (= x114 x253)))) (not (= x253 x235))) (not (= x169 x235)))) (and (and (not (= x57 x161)) (and (and (not (= x161 x154)) (and (and (and (and (and (and (not (= x154 x227)) (and (and (not (= x189 x145)) (and (and (not (= x145 x227)) (not (= x145 x154))) (not (= x57 x145)))) (not (= x161 x145)))) (not (= x57 x227))) (not (= x227 x189))) (not (= x227 x161))) (not (= x154 x57))) (not (= x154 x189)))) (not (= x189 x57)))) (not (= x161 x189))))) (and (not (= x93 x83)) (and (and (not (= x98 x83)) (and (not (= x93 x232)) (and (and (and (and (not (= x32 x83)) (and (not (= x98 x32)) (and (not (= x232 x32)) (and (not (= x93 x44)) (and (not (= x83 x44)) (and (not (= x44 x98)) (and (not (= x32 x44)) (not (= x44 x232))))))))) (not (= x32 x93))) (not (= x232 x98))) (not (= x83 x232))))) (not (= x93 x98)))))) (and (and (not (= x75 x137)) (and (not (= x122 x137)) (and (and (and (and (not (= x236 x75)) (and (and (not (= x137 x236)) (and (and (and (not (= x122 x248)) (and (and (not (= x248 x236)) (not (= x248 x27))) (not (= x137 x248)))) (not (= x75 x248))) (not (= x236 x27)))) (not (= x122 x236)))) (not (= x27 x137))) (not (= x27 x122))) (not (= x75 x27))))) (not (= x75 x122)))))))
(assert (let ((x253 (x76 x67 x67))) (let ((x114 (x76 x253 x67))) (let ((x22 (x76 x67 x114))) (let ((x235 (x76 x114 x114)) (x225 (x76 x22 x22))) (not (and (and (and (and (= x253 (x76 x253 x225)) (and (and (and (= (x76 x253 x22) x22) (and (and (= x235 x235) (and (and (= (x76 x114 x67) x225) (and (= (x76 x114 x235) x22) (and (= x253 (x76 x114 x22)) (and (= (x76 x225 x253) x225) (and (and (and (= x67 (x76 x225 x67)) (and (= (x76 x225 x235) x253) (and (= x235 (x76 x225 x22)) (and (= (x76 x67 x253) x114) (and (= x22 x22) (and (= (x76 x67 x225) x225) (and (and (and (and (= (x76 x235 x253) x22) (and (= x253 (x76 x235 x114)) (and (and (and (and (and (= x253 (x76 x22 x253)) (and (and (= x235 (x76 x22 x225)) (and (= x22 (x76 x22 x67)) (and (= (x76 x22 x235) x114) (= x225 x225)))) (= (x76 x22 x114) x67))) (= x114 (x76 x235 x22))) (= x225 (x76 x235 x235))) (= (x76 x235 x67) x235)) (= (x76 x235 x225) x67)))) (= x67 (x76 x67 x22))) (= x235 (x76 x67 x235))) (= x253 x253)))))))) (= (x76 x225 x225) x22)) (= (x76 x225 x114) x114)))))) (= (x76 x114 x225) x114))) (= x67 (x76 x114 x253)))) (= (x76 x253 x235) x67)) (= x114 x114))) (= x225 (x76 x253 x114))) (= x235 (x76 x253 x253))) (and (not (= x253 x114)) (and (and (and (and (and (and (and (not (= x114 x67)) (and (and (and (and (not (= x225 x114)) (and (and (not (= x225 x235)) (and (not (= x22 x225)) (and (and (and (not (= x67 x225)) (and (and (and (not (= x253 x235)) (and (and (and (not (= x235 x67)) (and (not (= x235 x22)) (and (not (= x253 x22)) (and (and (and (not (= x22 x67)) (not (= x235 x22))) (not (= x225 x22))) (not (= x22 x114)))))) (not (= x225 x235))) (not (= x235 x114)))) (not (= x22 x67))) (not (= x235 x67)))) (not (= x67 x114))) (not (= x253 x67))))) (not (= x67 x225)))) (not (= x225 x253))) (not (= x114 x22))) (not (= x235 x114)))) (not (= x225 x114))) (not (= x253 x114))) (not (= x253 x22))) (not (= x253 x235))) (not (= x253 x67))) (not (= x253 x225)))))))))))
(assert (and (and (not (= x162 x4)) (and (not (= x18 x162)) (and (not (= x4 x77)) (and (and (not (= x77 x162)) (and (and (not (= x247 x18)) (and (not (= x247 x162)) (and (not (= x247 x77)) (and (and (and (not (= x67 x162)) (and (not (= x67 x247)) (not (= x77 x67)))) (not (= x18 x67))) (not (= x67 x4)))))) (not (= x247 x4)))) (not (= x18 x77)))))) (not (= x4 x18))))
(assert (let ((x210 (x76 x77 x247)) (x55 (x76 x77 x162)) (x159 (x76 x247 x18)) (x59 (x76 x4 x67)) (x114 (x76 x67 x247)) (x150 (x76 x4 x18)) (x248 (x76 x18 x247)) (x225 (x76 x67 x67)) (x57 (x76 x77 x67)) (x87 (x76 x4 x77)) (x161 (x76 x18 x67)) (x26 (x76 x18 x4)) (x253 (x76 x67 x162)) (x11 (x76 x162 x162)) (x115 (x76 x18 x18)) (x189 (x76 x162 x67)) (x169 (x76 x67 x18)) (x41 (x76 x18 x77)) (x94 (x76 x162 x77)) (x236 (x76 x4 x247)) (x43 (x76 x4 x4)) (x98 (x76 x247 x247)) (x101 (x76 x77 x18)) (x195 (x76 x162 x247)) (x83 (x76 x247 x77)) (x154 (x76 x247 x67)) (x148 (x76 x18 x162)) (x93 (x76 x247 x162)) (x88 (x76 x162 x18)) (x229 (x76 x247 x4)) (x235 (x76 x67 x77)) (x145 (x76 x67 x4)) (x207 (x76 x77 x4)) (x184 (x76 x162 x4)) (x179 (x76 x77 x77)) (x7 (x76 x4 x162))) (let ((x146 (= x247 x145)) (x194 (= x67 x210)) (x113 (= x93 x67)) (x178 (= x4 x43)) (x64 (= x93 x18)) (x60 (= x247 x248)) (x182 (= x169 x247)) (x92 (= x93 x4)) (x223 (= x77 x248)) (x219 (= x77 x101)) (x48 (= x236 x247)) (x211 (= x4 x88)) (x193 (= x77 x195)) (x14 (= x77 x57)) (x47 (= x7 x67)) (x254 (= x67 x11)) (x29 (= x162 x179)) (x258 (= x189 x67)) (x209 (= x154 x4)) (x100 (= x18 x235)) (x75 (= x162 x154)) (x262 (= x225 x18)) (x227 (= x225 x247)) (x168 (= x4 x55)) (x124 (= x236 x67)) (x91 (= x77 x115)) (x172 (= x207 x247)) (x63 (= x18 x55)) (x226 (= x236 x162)) (x201 (= x145 x67)) (x224 (= x184 x247)) (x200 (= x101 x4)) (x40 (= x162 x93)) (x199 (= x4 x57)) (x127 (= x41 x162)) (x132 (= x162 x114)) (x152 (= x77 x83)) (x171 (= x184 x77)) (x239 (= x7 x77)) (x147 (= x77 x148)) (x164 (= x162 x43)) (x104 (= x179 x67)) (x71 (= x229 x77)) (x231 (= x18 x159)) (x133 (= x94 x4)) (x53 (= x4 x115)) (x27 (= x154 x77)) (x202 (= x247 x161)) (x153 (= x247 x148)) (x257 (= x4 x179)) (x180 (= x18 x145)) (x245 (= x18 x236)) (x72 (= x67 x59)) (x251 (= x247 x159)) (x22 (= x67 x225)) (x166 (= x18 x169)) (x261 (= x59 x77)) (x260 (= x88 x77)) (x256 (= x162 x210)) (x21 (= x59 x162)) (x174 (= x235 x247)) (x8 (= x57 x18)) (x149 (= x247 x114)) (x106 (= x43 x247)) (x5 (= x67 x41)) (x58 (= x67 x150)) (x157 (= x77 x159)) (x217 (= x179 x77)) (x107 (= x77 x94)) (x144 (= x67 x87)) (x62 (= x41 x18)) (x249 (= x94 x247)) (x65 (= x207 x67)) (x218 (= x159 x162)) (x192 (= x253 x77)) (x142 (= x189 x4)) (x198 (= x101 x67)) (x102 (= x4 x150)) (x78 (= x18 x98)) (x15 (= x55 x67)) (x141 (= x77 x93)) (x244 (= x101 x247)) (x242 (= x18 x26)) (x118 (= x41 x77)) (x69 (= x148 x67)) (x1 (= x101 x18)) (x36 (= x115 x18)) (x185 (= x55 x247)) (x46 (= x18 x179)) (x30 (= x67 x88)) (x6 (= x162 x169)) (x130 (= x114 x18)) (x156 (= x247 x41)) (x54 (= x150 x162)) (x116 (= x145 x4)) (x129 (= x94 x162)) (x243 (= x235 x77)) (x125 (= x150 x77)) (x68 (= x98 x4)) (x160 (= x247 x57)) (x259 (= x195 x18)) (x25 (= x67 x248)) (x255 (= x154 x18)) (x203 (= x247 x87)) (x38 (= x83 x162)) (x173 (= x43 x77)) (x42 (= x59 x18)) (x123 (= x4 x7)) (x112 (= x67 x94)) (x50 (= x93 x247)) (x241 (= x67 x115)) (x97 (= x11 x18)) (x139 (= x114 x4)) (x121 (= x236 x4)) (x212 (= x43 x18)) (x188 (= x67 x159)) (x2 (= x77 x210)) (x20 (= x253 x18)) (x176 (= x229 x162)) (x31 (= x7 x247)) (x105 (= x169 x4)) (x246 (= x77 x189)) (x220 (= x83 x247)) (x52 (= x26 x247)) (x138 (= x67 x83)) (x137 (= x114 x77)) (x181 (= x4 x83)) (x232 (= x154 x247)) (x44 (= x114 x67)) (x73 (= x87 x77)) (x35 (= x67 x229)) (x214 (= x247 x189)) (x222 (= x162 x115)) (x134 (= x247 x150)) (x80 (= x229 x247)) (x155 (= x115 x247)) (x96 (= x248 x18)) (x140 (= x207 x18)) (x252 (= x11 x247)) (x238 (= x148 x18)) (x126 (= x253 x162)) (x240 (= x225 x162)) (x61 (= x162 x88)) (x215 (= x253 x67)) (x191 (= x77 x236)) (x221 (= x18 x150)) (x250 (= x67 x26)) (x234 (= x161 x18)) (x208 (= x184 x67)) (x131 (= x4 x210)) (x90 (= x154 x67)) (x45 (= x18 x189)) (x33 (= x162 x26)) (x117 (= x77 x207)) (x128 (= x11 x4)) (x9 (= x18 x83)) (x39 (= x88 x247)) (x10 (= x4 x195)) (x122 (= x98 x77)) (x183 (= x94 x18)) (x34 (= x67 x57)) (x175 (= x98 x162)) (x37 (= x225 x77)) (x187 (= x18 x229)) (x86 (= x57 x162)) (x56 (= x145 x162)) (x28 (= x77 x169)) (x170 (= x4 x148)) (x216 (= x195 x247)) (x82 (= x189 x162)) (x228 (= x161 x4)) (x205 (= x162 x161)) (x16 (= x248 x162)) (x99 (= x161 x77)) (x136 (= x67 x169)) (x85 (= x7 x162)) (x143 (= x18 x88)) (x108 (= x235 x162)) (x95 (= x145 x77)) (x70 (= x159 x4)) (x81 (= x67 x161)) (x17 (= x55 x77)) (x197 (= x98 x247)) (x74 (= x184 x4)) (x24 (= x4 x229)) (x103 (= x77 x11)) (x19 (= x4 x248)) (x32 (= x98 x67)) (x158 (= x225 x4)) (x79 (= x195 x67)) (x12 (= x247 x59)) (x190 (= x4 x235)) (x120 (= x59 x4)) (x135 (= x162 x101)) (x51 (= x162 x195)) (x23 (= x4 x41)) (x163 (= x210 x18)) (x110 (= x184 x162)) (x13 (= x77 x26)) (x233 (= x26 x4)) (x165 (= x87 x4)) (x196 (= x7 x18)) (x186 (= x179 x247)) (x230 (= x235 x67)) (x84 (= x148 x162)) (x213 (= x43 x67)) (x119 (= x162 x207)) (x89 (= x247 x253)) (x167 (= x253 x4)) (x109 (= x4 x207)) (x204 (= x11 x162)) (x151 (= x162 x55)) (x237 (= x18 x87)) (x206 (= x184 x18)) (x49 (= x87 x162)) (x111 (= x247 x210))) (and (and (and (and (and (and (or x173 (or (or x239 (or (or x191 x261) x73)) x125)) (or x173 (or (or (or (or x71 x95) x117) x171) x13))) (and (and (or (or (or x208 (or (or x35 x201) x65)) x250) x213) (or x213 (or x58 (or x47 (or x144 (or x124 x72)))))) (and (or (or (or (or x172 (or x80 x146)) x224) x52) x106) (or x106 (or (or x31 (or x203 (or x48 x12))) x134))))) (and (or x164 (or x54 (or (or x49 (or x21 x226)) x85))) (or (or (or (or (or x56 x176) x119) x110) x33) x164))) (and (or (or x221 (or (or x237 (or x42 x245)) x196)) x212) (or x212 (or x242 (or (or (or x187 x180) x140) x206))))) (and (or x178 (or (or x123 (or (or x121 x120) x165)) x102)) (or (or (or x74 (or (or x116 x24) x109)) x233) x178))) (and (and (and (or (or (or (or x23 (or x19 x228)) x170) x53) x233) (or x102 (or (or x211 (or (or x105 x70) x200)) x53))) (and (and (and (and (or x125 (or (or (or x219 (or x28 x157)) x260) x91)) (or (or x91 (or x147 (or (or x99 x223) x118))) x13)) (and (and (or x52 (or x155 (or x153 (or x156 (or x202 x60))))) (or (or (or x39 (or (or x251 x182) x244)) x155) x134)) (and (or (or (or x69 (or (or x25 x81) x5)) x241) x250) (or x58 (or (or x30 (or (or x188 x136) x198)) x241))))) (and (or (or (or x61 (or x135 (or x6 x218))) x222) x54) (or x33 (or x222 (or x84 (or x127 (or x16 x205))))))) (and (or (or (or x238 (or (or x96 x234) x62)) x36) x242) (or x221 (or (or x143 (or (or x231 x166) x1)) x36))))) (and (and (and (or (or (or (or x133 (or x142 x10)) x128) x211) x74) (or (or (or (or x168 (or x167 x92)) x128) x170) x123)) (and (and (or (or x238 (or x97 (or x63 (or x64 x20)))) x196) (or (or (or x97 (or x183 (or x259 x45))) x143) x206)) (and (and (or (or (or (or (or x51 x82) x129) x204) x61) x110) (or x85 (or (or x204 (or x151 (or x40 x126))) x84))) (and (and (or (or (or (or (or x246 x193) x107) x103) x260) x171) (or x239 (or x147 (or x103 (or (or x141 x192) x17))))) (and (and (or (or (or x252 (or x249 (or x214 x216))) x39) x224) (or (or x153 (or x252 (or (or x89 x50) x185))) x31)) (and (or (or (or x254 (or x15 (or x113 x215))) x69) x47) (or (or (or (or x112 (or x79 x258)) x254) x30) x208))))))) (and (and (and (and (or x24 (or x70 (or (or (or x68 x209) x181) x92))) (or x121 (or x19 (or x10 (or x131 (or x139 x68)))))) (and (and (and (or x176 (or (or (or x38 (or x75 x175)) x40) x218)) (or (or x16 (or x51 (or (or x175 x132) x256))) x226)) (and (and (or (or (or x141 (or (or x27 x122) x152)) x157) x71) (or x191 (or (or x193 (or (or x122 x137) x2)) x223))) (and (and (or x35 (or x188 (or x113 (or (or x32 x90) x138)))) (or x124 (or (or (or x194 (or x44 x32)) x79) x25))) (and (or x80 (or x251 (or x50 (or x220 (or x232 x197))))) (or (or (or x216 (or (or x149 x197) x111)) x60) x48))))) (and (or x187 (or (or (or x9 (or x255 x78)) x64) x231)) (or (or x96 (or x259 (or x163 (or x78 x130)))) x245)))) (and (and (or (or x228 (or (or (or x209 x158) x199) x142)) x120) (or (or x105 (or (or x190 (or x139 x158)) x167)) x116)) (and (and (and (or x56 (or x6 (or x126 (or x108 (or x132 x240))))) (or (or (or (or x86 (or x75 x240)) x82) x205) x21)) (and (and (or (or (or (or (or x37 x27) x14) x246) x99) x261) (or x95 (or x28 (or (or x243 (or x37 x137)) x192)))) (and (and (or (or (or (or x230 (or x22 x44)) x215) x136) x201) (or (or (or (or x34 (or x22 x90)) x258) x81) x72)) (and (or x146 (or x182 (or x89 (or x174 (or x149 x227))))) (or (or (or x214 (or (or x227 x232) x160)) x202) x12))))) (and (or x180 (or x166 (or (or (or x130 x262) x100) x20))) (or x42 (or x234 (or (or (or x255 x262) x8) x45))))))) (and (and (or (or (or x133 (or (or x181 x190) x257)) x23) x165) (or (or x200 (or (or (or x199 x131) x257) x168)) x109)) (and (and (or x140 (or (or (or x46 (or x8 x163)) x63) x1)) (or (or x62 (or (or (or x100 x9) x46) x183)) x237)) (and (and (and (and (or x172 (or x244 (or x185 (or (or x160 x111) x186)))) (or (or (or (or x186 (or x174 x220)) x249) x156) x203)) (and (or (or x5 (or x112 (or (or x230 x138) x104))) x144) (or x65 (or x198 (or x15 (or (or x34 x194) x104)))))) (and (or (or x118 (or x107 (or (or x243 x152) x217))) x73) (or (or x219 (or x17 (or (or x2 x14) x217))) x117))) (and (or x119 (or (or x151 (or x29 (or x256 x86))) x135)) (or x49 (or (or (or x29 (or x38 x108)) x129) x127)))))))))))))
(assert (and (not (= (x76 x4 x4) x4)) (and (not (= (x76 x18 x18) x18)) (and (and (and (not (= (x76 x67 x67) x67)) (not (= (x76 x247 x247) x247))) (not (= x77 (x76 x77 x77)))) (not (= (x76 x162 x162) x162))))))
(check-sat)
(exit)
